sifdecoder -A pc64.lnx.gfo -st   LIN

 Problem name: LIN

 Double precision version will be formed

 The objective function uses 1 nonlinear group
 
 There are 2 linear equality constraints
 
 There are 4 variables bounded from below and above 
 
 
 File successfully decoded
 CUTEST: tools (double precision version) compiled successfully
 CUTEst: ipopt (double precision version) compiled successfully

******************************************************************************
This program contains Ipopt, a library for large-scale nonlinear optimization.
 Ipopt is released as open source code under the Eclipse Public License (EPL).
         For more information visit http://projects.coin-or.org/Ipopt
******************************************************************************

This is Ipopt version trunk, running with linear solver ma57.

Number of nonzeros in equality constraint Jacobian...:        4
Number of nonzeros in inequality constraint Jacobian.:        0
Number of nonzeros in Lagrangian Hessian.............:        6

Total number of variables............................:        4
                     variables with only lower bounds:        0
                variables with lower and upper bounds:        4
                     variables with only upper bounds:        0
Total number of equality constraints.................:        2
Total number of inequality constraints...............:        0
        inequality constraints with only lower bounds:        0
   inequality constraints with lower and upper bounds:        0
        inequality constraints with only upper bounds:        0

iter    objective    inf_pr   inf_du lg(mu)  ||d||  lg(rg) alpha_du alpha_pr  ls
   0 -1.1064370e-02 1.00e-12 5.19e-09  -1.0 0.00e+00    -  0.00e+00 0.00e+00   0
   1 -5.1922038e-03 1.39e-17 2.23e-08  -1.7 1.96e-02    -  1.00e+00 1.00e+00f  1
   2  6.1252274e-03 6.94e-18 3.00e-09  -2.5 3.19e-02    -  1.00e+00 1.00e+00f  1
   3  7.3223606e-03 1.39e-17 1.25e-10  -3.8 1.03e-02    -  1.00e+00 1.00e+00f  1
   4  7.4481734e-03 5.55e-17 5.04e-12  -5.7 2.25e-03    -  1.00e+00 1.00e+00f  1
   5  7.4590584e-03 1.39e-17 5.71e-14  -8.6 2.46e-04    -  1.00e+00 1.00e+00h  1
   6  7.3143563e-03 2.78e-17 3.85e-12 -12.9 2.08e-03    -  9.94e-01 1.00e+00h  1
   7  7.3140870e-03 5.55e-17 3.58e-10 -12.9 3.58e-06  -4.0 1.00e+00 1.00e+00h  1

Number of Iterations....: 7

                                   (scaled)                 (unscaled)
Objective...............:   7.3140869990425685e-11    7.3140869990425683e-03
Dual infeasibility......:   3.5831805180094612e-10    3.5831805180094614e-02
Constraint violation....:   5.5511151231257827e-17    5.5511151231257827e-17
Complementarity.........:   1.2677607435149459e-13    1.2677607435149458e-05
Overall NLP error.......:   3.5831805180094612e-10    3.5831805180094614e-02


Number of objective function evaluations             = 8
Number of objective gradient evaluations             = 8
Number of equality constraint evaluations            = 8
Number of inequality constraint evaluations          = 0
Number of equality constraint Jacobian evaluations   = 8
Number of inequality constraint Jacobian evaluations = 0
Number of Lagrangian Hessian evaluations             = 7
Total CPU secs in IPOPT (w/o function evaluations)   =      0.011
Total CPU secs in NLP function evaluations           =      0.001

EXIT: Optimal Solution Found.

************************ CUTEst statistics ************************


 Package used            :  IPOPT
 Problem                 :  LIN       
 # variables             =               4
 # constraints           =               2
 # objective functions   =        0.1700000E+02
 # objective gradients   =        0.9000000E+01
 # objective Hessians    =        0.8000000E+01
 # Hessian-vector prdct  =        0.0000000E+00
 # constraints functions =        0.1800000E+02
 # constraints gradients =        0.1000000E+02
 # constraints Hessians  =        0.8000000E+01
 Exit code               =               0
 Final f                 =        7.3140869990425683D-03
 Bounds feasibility      =        0.0000000000000000D+00
 Set up time             =            0.00 seconds
 Solve time              =            0.06 seconds


******************************************************************

